# LAMMPS Lennard-Jones pair coefficients
# epsilon (kcal/mol), sigma (Angstrom)

pair_coeff 1 1 0.100000 3.000000  # A-A
pair_coeff 1 2 0.070711 2.449490  # A-B  
pair_coeff 2 2 0.050000 2.000000  # B-B
