# LAMMPS Lennard-Jones pair coefficients

pair_coeff 1 1 0 0 13.142
pair_coeff 1 2 0 2.105 13.142
pair_coeff 1 3 0 1.5165 13.142
pair_coeff 1 4 0 1.3785 13.142
pair_coeff 2 2 0.227143 4.21 13.142
pair_coeff 2 3 0.190615 3.6215 13.142
pair_coeff 2 4 0.112619 3.4835 13.142
pair_coeff 3 3 0.159961 3.033 13.142
pair_coeff 3 4 0.0945081 2.895 13.142
pair_coeff 4 4 0.0558373 2.757 13.142

# bond_style harmonic/intel
bond_coeff 1 0 0
bond_coeff 2 1200 1.149

# angle_style harmonic/intel
angle_coeff 1 0 0
angle_coeff 2 0 0
angle_coeff 3 147.705 180
