# LAMMPS Lennard-Jones pair coefficients

pair_coeff 1 1 0.159961 3.033 
pair_coeff 1 2 0.0945081 2.895
pair_coeff 2 2 0.0558373 2.757

# bond_style harmonic/intel
bond_coeff 1 1200 1.149

# angle_style harmonic/intel
angle_coeff 1 147.705 180
