# Input LAMMPS, water-ch4o mixture

units real
atom_style full
bond_style harmonic
angle_style harmonic
dihedral_style hybrid charmm opls
improper_style harmonic
pair_style lj/cut/coul/long 12.0
pair_modify mix arithmetic
kspace_style ewald 1e-5
special_bonds lj/coul 0.0 0.0 0.5
boundary p p p

region box block -100 100 -100 100 -100 100
create_box 11 box &
    bond/types 10 &
    angle/types 14 &
    dihedral/types 15 &
    improper/types 7 &
    extra/bond/per/atom 10 &
    extra/angle/per/atom 10 &
    extra/dihedral/per/atom 10 &
    extra/improper/per/atom 10 &
    extra/special/per/atom 10

molecule ch4o ch4o.mol
create_atoms 0 random 1500 87910 NULL mol ch4o 454756 overlap 2.5 maxtry 50
group ch4o type 8 9 10 11

include parameters.inc

velocity ch4o create 300.0 4928459 rot yes dist gaussian
fix mynvt1 ch4o nvt temp 300.0 300.0 10.0

dump mydmp all atom 100 dump.lammpstrj
thermo 10
thermo_style custom step temp etotal vol density

run 200

write_data topology.data nocoeff
