units        real
boundary     p p p
atom_style   full
pair_style   lj/cut/coul/long 10.0
bond_style   harmonic
angle_style  harmonic
kspace_style pppm 0.00001
pair_modify  mix arithmetic 
