# LAMMPS input script 

variable T equal 300.0
variable p equal 1.0
variable tauT equal 100.0
variable tauP equal 1000.0

units real
atom_style full
bond_style harmonic
angle_style harmonic
dihedral_style charmm
improper_style harmonic
boundary p p p

region box block -50 50 -50 50 -50 50
create_box 14 box &
    bond/types 12 &
    angle/types 16 &
    dihedral/types 12 &
    improper/types 4 &
    extra/bond/per/atom 10 &
    extra/angle/per/atom 10 &
    extra/dihedral/per/atom 4 &
    extra/improper/per/atom 4 &
    extra/special/per/atom 4

# Sets the 3 coefficients to 0.0, 0.0, 0.5 for LJ interactions and
# to 0.0, 0.0, 0.8333 for Coulombic interactions
# and impose the Lorentz-Berthelot mixing rules
pair_style lj/cut/coul/long 8.5
special_bonds amber
pair_modify mix arithmetic
kspace_style ewald 1e-5

molecule methanol methanol.mol
create_atoms 0 random 3 27910 NULL mol methanol 454756 overlap 3.2 maxtry 50

molecule h2o h2o.mol
create_atoms 0 random 4 87910 NULL mol h2o 754733 overlap 3.2 maxtry 50

mass 1 12.011 # C1
mass 2 12.011 # C2
mass 3 12.011 # C3
mass 4 1.008 # H2
mass 5 1.008 # H3
mass 6 14.007 # N
mass 7 65.38 # Zn
mass 8 1.008 # HO
mass 9 15.035 # CH (12.011+1.008*3)
mass 10 15.9994 # OH
mass 11 0.0001 # Me
mass 12 15.999 # OW
mass 13 1.00784 # HW
mass 14 0.0001 # MW

group zif8 type 1 2 3 4 5 6 7
group methanol type 8 9 10 11
group water type 12 13 14
group mixture union methanol water

include parameters.inc

fix mynvt1 zif8 nvt temp ${T} ${T} ${tauT}
fix mynvt2 mixture rigid/nvt molecule temp ${T} ${T} ${tauT}

dump mydmp all atom 100 mixture.lammpstrj
thermo 100

run 1000

write_data mixture.data