# LAMMPS input script 

variable T equal 300.0
variable p equal 1.0

units real
atom_style full
bond_style harmonic
angle_style harmonic
dihedral_style hybrid charmm opls
improper_style harmonic
pair_style lj/cut/coul/long 12.0
pair_modify mix arithmetic
kspace_style ewald 1e-5
special_bonds amber
boundary p p p

read_data zif8.data

molecule ch4o ch4o.mol
create_atoms 0 random 200 27910 NULL mol ch4o 454756 overlap 2.5 maxtry 50

molecule h2o h2o.mol
create_atoms 0 random 500 87910 NULL mol h2o 754733 overlap 2.0 maxtry 200

group zif8 type 1 2 3 4 5 6 7
group ch4o type 8 9 10 11
group h2o type 12 13 14
group mixture union ch4o h2o
group flexible union ch4o zif8

include parameters.inc

fix mynvt flexible nvt temp ${T} ${T} 500.0
fix mynpt h2o rigid/npt molecule temp ${T} ${T} 500.0 aniso ${p} ${p} 5000.0

dump mydmp all atom 10 mixture-in-zif8.lammpstrj
thermo 10

run 500
write_data topology.data

