# LAMMPS Input File (License CC BY 4.0)

mass 1 39.962 # Ar_A
mass 2 39.962 # Ar_B

pair_coeff 1 1 0.238 3.4 # AA
pair_coeff 2 2  0.238 3.4 # OO