# LAMMPS Input File (License CC BY 4.0)

mass 1 ${mass} # Ar_A
mass 2 ${mass} # Ar_B

pair_coeff 1 1 ${epsilon} ${sigma} # AA
pair_coeff 2 2 ${epsilon} ${sigma} # OO