# LAMMPS input file
# Rigid frame and rigid TIP4P molecule with explicit 4-th point

units real
boundary p p p
atom_style full
bond_style harmonic
angle_style harmonic
pair_style lj/cut/coul/long 17
kspace_style ewald 1.0e-5
kspace_modify kmax/ewald 16 16 16 gewald 0.1622

read_data topology.data

include parameters.inc
group H2O type 1 2 3

thermo_style custom step pe evdwl ecoul elong

thermo 1

run 0