# LAMMPS Lennard-Jones pair coefficients
# epsilon (kcal/mol), sigma (Angstrom)

pair_coeff 1 1 0.155062 3.154000  # Ow-Ow
pair_coeff 1 2 0.000000 0.000000  # Ow-Mw
pair_coeff 1 3 0.000000 0.000000  # Ow-Hw
pair_coeff 1 4 0.115221 2.746000  # Ow-Zn
pair_coeff 1 5 0.106028 3.206500  # Ow-C1
pair_coeff 1 6 0.106028 3.206500  # Ow-C2
pair_coeff 1 7 0.068635 2.797000  # Ow-H1
pair_coeff 1 8 0.106028 3.206500  # Ow-C3
pair_coeff 1 9 0.068635 2.797000  # Ow-H2
pair_coeff 1 10 0.068635 2.797000  # Ow-H3
pair_coeff 1 11 0.085950 3.125500  # Ow-N
pair_coeff 2 2 0.000000 0.000000  # Mw-Mw
pair_coeff 2 3 0.000000 0.000000  # Mw-Hw
pair_coeff 2 4 0.000000 0.000000  # Mw-Zn
pair_coeff 2 5 0.000000 0.000000  # Mw-C1
pair_coeff 2 6 0.000000 0.000000  # Mw-C2
pair_coeff 2 7 0.000000 0.000000  # Mw-H1
pair_coeff 2 8 0.000000 0.000000  # Mw-C3
pair_coeff 2 9 0.000000 0.000000  # Mw-H2
pair_coeff 2 10 0.000000 0.000000  # Mw-H3
pair_coeff 2 11 0.000000 0.000000  # Mw-N
pair_coeff 3 3 0.000000 0.000000  # Hw-Hw
pair_coeff 3 4 0.000000 0.000000  # Hw-Zn
pair_coeff 3 5 0.000000 0.000000  # Hw-C1
pair_coeff 3 6 0.000000 0.000000  # Hw-C2
pair_coeff 3 7 0.000000 0.000000  # Hw-H1
pair_coeff 3 8 0.000000 0.000000  # Hw-C3
pair_coeff 3 9 0.000000 0.000000  # Hw-H2
pair_coeff 3 10 0.000000 0.000000  # Hw-H3
pair_coeff 3 11 0.000000 0.000000  # Hw-N
pair_coeff 4 4 0.085617 2.338000  # Zn-Zn
pair_coeff 4 5 0.078785 2.798500  # Zn-C1
pair_coeff 4 6 0.078785 2.798500  # Zn-C2
pair_coeff 4 7 0.051001 2.389000  # Zn-H1
pair_coeff 4 8 0.078785 2.798500  # Zn-C3
pair_coeff 4 9 0.051001 2.389000  # Zn-H2
pair_coeff 4 10 0.051001 2.389000  # Zn-H3
pair_coeff 4 11 0.063866 2.717500  # Zn-N
pair_coeff 5 5 0.072499 3.259000  # C1-C1
pair_coeff 5 6 0.072499 3.259000  # C1-C2
pair_coeff 5 7 0.046931 2.849500  # C1-H1
pair_coeff 5 8 0.072499 3.259000  # C1-C3
pair_coeff 5 9 0.046931 2.849500  # C1-H2
pair_coeff 5 10 0.046931 2.849500  # C1-H3
pair_coeff 5 11 0.058770 3.178000  # C1-N
pair_coeff 6 6 0.072499 3.259000  # C2-C2
pair_coeff 6 7 0.046931 2.849500  # C2-H1
pair_coeff 6 8 0.072499 3.259000  # C2-C3
pair_coeff 6 9 0.046931 2.849500  # C2-H2
pair_coeff 6 10 0.046931 2.849500  # C2-H3
pair_coeff 6 11 0.058770 3.178000  # C2-N
pair_coeff 7 7 0.030380 2.440000  # H1-H1
pair_coeff 7 8 0.046931 2.849500  # H1-C3
pair_coeff 7 9 0.030380 2.440000  # H1-H2
pair_coeff 7 10 0.030380 2.440000  # H1-H3
pair_coeff 7 11 0.038044 2.768500  # H1-N
pair_coeff 8 8 0.072499 3.259000  # C3-C3
pair_coeff 8 9 0.046931 2.849500  # C3-H2
pair_coeff 8 10 0.046931 2.849500  # C3-H3
pair_coeff 8 11 0.058770 3.178000  # C3-N
pair_coeff 9 9 0.030380 2.440000  # H2-H2
pair_coeff 9 10 0.030380 2.440000  # H2-H3
pair_coeff 9 11 0.038044 2.768500  # H2-N
pair_coeff 10 10 0.030380 2.440000  # H3-H3
pair_coeff 10 11 0.038044 2.768500  # H3-N
pair_coeff 11 11 0.047641 3.097000  # N-N

bond_coeff 1 0 0.15 
bond_coeff 2 0 0.9572

angle_coeff 1 0 52.26
angle_coeff 2 0 104.52
