# LAMMPS input file
# Rigid frame and rigid TIP4P molecule with explicit 4-th point

units real
boundary p p p
atom_style full
bond_style harmonic
angle_style harmonic
pair_style lj/cut/coul/long 17
kspace_style ewald 1.0e-5
kspace_modify kmax/ewald 5 5 5 gewald 0.1622
# special_bonds lj 0.0 0.0 0.5 coul 0.0 0.0 0.833

read_data zif8-water.data
include zif8-water.inc

group H2O type 1 2 3
group ZIF type 4 5 6 7 8 9 10 11
neigh_modify exclude group ZIF ZIF
# neigh_modify exclude group H2O H2O

thermo_style custom step etotal evdwl ecoul elong ebond 

run 0
write_dump all atom zif8-water.lammpstrj
