# LAMMPS Lennard-Jones pair coefficients
# epsilon (kcal/mol), sigma (Angstrom)

pair_coeff 1 1 0.155062 3.154000  # Ow-Ow
pair_coeff 1 2 0.000000 0.000000  # Ow-Mw
pair_coeff 1 3 0.000000 0.000000  # Ow-Hw
pair_coeff 2 2 0.000000 0.000000  # Mw-Mw
pair_coeff 2 3 0.000000 0.000000  # Mw-Hw
pair_coeff 3 3 0.000000 0.000000  # Hw-Hw

bond_coeff 1 0 0.15 
bond_coeff 2 0 0.9572

angle_coeff 1 0 52.26
angle_coeff 2 0 104.52
